NAME : random191.1050.tour
COMMENT : Length = 1050
COMMENT : Found by LKH [Keld Helsgaun] Mon Dec 30 21:19:25 2024
TYPE : TOUR
DIMENSION : 191
TOUR_SECTION
1
95
98
47
106
19
187
48
86
152
62
87
134
190
161
163
180
104
60
188
141
145
148
94
136
112
15
61
113
85
40
122
31
45
69
42
142
50
56
5
110
177
167
128
184
80
65
189
153
21
166
26
169
38
160
11
81
146
63
28
123
17
49
130
107
150
92
39
172
54
24
20
58
8
75
170
52
91
138
89
36
109
83
135
116
181
35
82
171
144
99
178
101
55
30
72
125
41
140
162
76
115
43
103
96
118
129
183
191
27
6
173
59
22
3
73
151
33
46
4
53
157
9
155
108
131
132
25
174
137
117
67
139
158
133
127
165
71
68
119
156
168
37
23
78
74
121
84
186
93
126
77
34
13
51
29
12
143
64
79
175
10
18
44
97
2
149
185
147
164
100
7
176
102
32
154
70
16
120
57
114
159
179
124
182
66
111
88
90
14
105
-1
EOF
